Using license file /home/benedond/gurobi.lic
Using gurobi.env file
Set parameter Threads to value 1
Academic license - for non-commercial use only
Changed value of parameter TimeLimit to 300.0
   Prev: inf  Min: 0.0  Max: inf  Default: inf
Gurobi Optimizer version 9.0.1 build v9.0.1rc0 (linux64)
Optimize a model with 975 rows, 480 columns and 3658 nonzeros
Model fingerprint: 0x7a20fa02
Variable types: 15 continuous, 465 integer (450 binary)
Coefficient statistics:
  Matrix range     [2e-01, 3e+03]
  Objective range  [1e-03, 4e-01]
  Bounds range     [1e+00, 1e+00]
  RHS range        [1e+00, 3e+03]

---------------------------------------------------------------------------
Multi-objectives: starting optimization with 1 objectives ... 
---------------------------------------------------------------------------
---------------------------------------------------------------------------

Multi-objectives: optimize objective 1 (min avg power cons) ...
---------------------------------------------------------------------------

Optimize a model with 975 rows, 480 columns and 3658 nonzeros
Variable types: 15 continuous, 465 integer (450 binary)
Coefficient statistics:
  Matrix range     [2e-01, 3e+03]
  Objective range  [1e-03, 4e-01]
  Bounds range     [1e+00, 1e+00]
  RHS range        [1e+00, 3e+03]
Presolve removed 590 rows and 291 columns
Presolve time: 0.03s
Presolved: 385 rows, 189 columns, 2700 nonzeros
Variable types: 13 continuous, 176 integer (163 binary)
Found heuristic solution: objective 5.4006220

Root relaxation: objective 1.677296e+00, 96 iterations, 0.00 seconds

    Nodes    |    Current Node    |     Objective Bounds      |     Work
 Expl Unexpl |  Obj  Depth IntInf | Incumbent    BestBd   Gap | It/Node Time

     0     0    1.67730    0   34    5.40062    1.67730  68.9%     -    0s
H    0     0                       4.9665488    1.67730  66.2%     -    0s
H    0     0                       4.5499878    1.67730  63.1%     -    0s
     0     0    2.09467    0   38    4.54999    2.09467  54.0%     -    0s
H    0     0                       3.9333049    2.09467  46.7%     -    0s
     0     0    2.09768    0   44    3.93330    2.09768  46.7%     -    0s
     0     0    2.17412    0   43    3.93330    2.17412  44.7%     -    0s
     0     0    2.17509    0   41    3.93330    2.17509  44.7%     -    0s
     0     0    2.35324    0   47    3.93330    2.35324  40.2%     -    0s
     0     0    2.36040    0   47    3.93330    2.36040  40.0%     -    0s
     0     0    2.36221    0   48    3.93330    2.36221  39.9%     -    0s
     0     0    2.36249    0   48    3.93330    2.36249  39.9%     -    0s
     0     0    2.36251    0   49    3.93330    2.36251  39.9%     -    0s
     0     0    2.41264    0   48    3.93330    2.41264  38.7%     -    0s
H    0     0                       3.9215976    2.41264  38.5%     -    0s
     0     0    2.41628    0   57    3.92160    2.41628  38.4%     -    0s
     0     0    2.41826    0   55    3.92160    2.41826  38.3%     -    0s
     0     0    2.47020    0   55    3.92160    2.47020  37.0%     -    0s
     0     0    2.47586    0   57    3.92160    2.47586  36.9%     -    0s
     0     0    2.47651    0   57    3.92160    2.47651  36.8%     -    0s
     0     0    2.47656    0   57    3.92160    2.47656  36.8%     -    0s
     0     0    2.49330    0   68    3.92160    2.49330  36.4%     -    0s
     0     0    2.49707    0   59    3.92160    2.49707  36.3%     -    0s
     0     0    2.49834    0   61    3.92160    2.49834  36.3%     -    0s
     0     0    2.50008    0   54    3.92160    2.50008  36.2%     -    0s
     0     0    2.50053    0   69    3.92160    2.50053  36.2%     -    0s
     0     0    2.50109    0   61    3.92160    2.50109  36.2%     -    0s
     0     0    2.50116    0   62    3.92160    2.50116  36.2%     -    0s
     0     0    2.50624    0   48    3.92160    2.50624  36.1%     -    0s
     0     0    2.50826    0   46    3.92160    2.50826  36.0%     -    0s
     0     0    2.50898    0   50    3.92160    2.50898  36.0%     -    0s
     0     0    2.50898    0   56    3.92160    2.50898  36.0%     -    0s
     0     0    2.51487    0   53    3.92160    2.51487  35.9%     -    0s
     0     0    2.51531    0   55    3.92160    2.51531  35.9%     -    0s
     0     0    2.51566    0   55    3.92160    2.51566  35.9%     -    0s
     0     0    2.51597    0   55    3.92160    2.51597  35.8%     -    0s
     0     0    2.51740    0   46    3.92160    2.51740  35.8%     -    0s
H    0     0                       3.8006951    2.51740  33.8%     -    0s
H    0     0                       3.7007561    2.51740  32.0%     -    0s
     0     0    2.51845    0   57    3.70076    2.51845  31.9%     -    0s
     0     0    2.51886    0   59    3.70076    2.51886  31.9%     -    0s
     0     0    2.51914    0   68    3.70076    2.51914  31.9%     -    0s
     0     0    2.51921    0   69    3.70076    2.51921  31.9%     -    0s
     0     0    2.52075    0   83    3.70076    2.52075  31.9%     -    0s
     0     0    2.52119    0   82    3.70076    2.52119  31.9%     -    0s
     0     0    2.52126    0   84    3.70076    2.52126  31.9%     -    0s
     0     0    2.52266    0   90    3.70076    2.52266  31.8%     -    0s
     0     0    2.52301    0   75    3.70076    2.52301  31.8%     -    0s
     0     0    2.52332    0   51    3.70076    2.52332  31.8%     -    0s
     0     0    2.52354    0   50    3.70076    2.52354  31.8%     -    0s
     0     0    2.52371    0   50    3.70076    2.52371  31.8%     -    0s
     0     0    2.52371    0   50    3.70076    2.52371  31.8%     -    0s
     0     2    2.52469    0   50    3.70076    2.52469  31.8%     -    0s
H   27    18                       3.6533537    2.53685  30.6%  38.1    0s
H  108    38                       3.6178171    2.79126  22.8%  31.6    0s
H  146    44                       3.6123537    2.82924  21.7%  26.7    0s
H  270    45                       3.5303415    2.98960  15.3%  29.3    0s
H  355    28                       3.3528658    3.08368  8.03%  28.5    0s

Cutting planes:
  Learned: 5
  Gomory: 1
  Cover: 14
  Implied bound: 51
  Clique: 4
  MIR: 82
  StrongCG: 2
  GUB cover: 18
  Relax-and-lift: 78

Explored 424 nodes (13237 simplex iterations) in 0.77 seconds
Thread count was 1 (of 4 available processors)

Solution count 10: 3.35287 3.53034 3.61235 ... 4.54999

Optimal solution found (tolerance 1.00e-04)
Best objective 3.352865847055e+00, best bound 3.352865847055e+00, gap 0.0000%

---------------------------------------------------------------------------
Multi-objectives: solved in 0.77 seconds, solution count 10

